ilp_joint_2/output/physical change_ilp.mps
NAME physical change_srl_ilp
* Max problem is converted into Min one
ROWS
 N  OBJ
 L  constraint1_3730
 L  constraint2_3730
 L  constraint2_3731
 L  constraint2_3732
 L  constraint2_3733
 L  constraint2_3734
COLUMNS
    MARKER    'MARKER'                 'INTORG'
    Z_373_0_0  OBJ       -8.5903009067163194e-02
    Z_373_0_0  constraint1_3730  1
    Z_373_0_0  constraint2_3730  1
    Z_373_0_1  OBJ       -3.2102124322472114e-02
    Z_373_0_1  constraint1_3730  1
    Z_373_0_1  constraint2_3731  1
    Z_373_0_2  OBJ       -1.1319490614060790e-02
    Z_373_0_2  constraint1_3730  1
    Z_373_0_2  constraint2_3732  1
    Z_373_0_3  OBJ       -2.3778573463625829e-02
    Z_373_0_3  constraint1_3730  1
    Z_373_0_3  constraint2_3733  1
    Z_373_0_4  OBJ       -1.7412820150302266e-02
    Z_373_0_4  constraint1_3730  1
    Z_373_0_4  constraint2_3734  1
    MARKER    'MARKER'                 'INTEND'
RHS
    RHS1      constraint1_3730  1
    RHS1      constraint2_3730  1
    RHS1      constraint2_3731  1
    RHS1      constraint2_3732  1
    RHS1      constraint2_3733  1
    RHS1      constraint2_3734  1
BOUNDS
 UP BND1      Z_373_0_0  1
 UP BND1      Z_373_0_1  1
 UP BND1      Z_373_0_2  1
 UP BND1      Z_373_0_3  1
 UP BND1      Z_373_0_4  1
ENDATA
