ilp_joint_2/output/physical change_ilp.sol
# Solution for model physical change_srl_ilp
# Objective value = 8.5903009067163194e-02
Z_373_0_0 1
Z_373_0_1 0
Z_373_0_2 0
Z_373_0_3 0
Z_373_0_4 0
